sat
(
(define-fun sym811 () String "G")
(define-fun sym209 () String "Y")
(define-fun sym4717 () String "A")
(define-fun sym1679 () String "H")
(define-fun sym2538 () String "K")
(define-fun sym2953 () String "H")
(define-fun sym551 () String "K")
(define-fun sym2107 () String "G")
(define-fun sym4206 () String "K")
(define-fun sym1257 () String "K")
(define-fun sym4623 () String "K")
(define-fun sym3169 () String "K")
(define-fun sym2751 () String "G")
(define-fun sym4413 () String "G")
(define-fun sym1036 () String "H")
(define-fun sym2323 () String "H")
(define-fun sym1894 () String "K")
(define-fun sym3376 () String "K")
(define-fun sym3793 () String "G")
(define-fun sym3583 () String "G")
(define-fun sym4000 () String "L")
(define-fun sym1470 () String "G")
(define-fun sym161 () String "")
)
